SCIP version 5.0.0 [precision: 8 byte] [memory: block] [mode: optimized] [LP solver: NONE] [GitHash: 3bbd232]
Copyright (C) 2002-2017 Konrad-Zuse-Zentrum fuer Informationstechnik Berlin (ZIB)

External codes: 
  Readline EditLine w  GNU library for command line editing (gnu.org/s/readline)
  CppAD 20160000.1     Algorithmic Differentiation of C++ algorithms developed by B. Bell (www.coin-or.org/CppAD)
  ZLIB 1.2.5           General purpose compression library by J. Gailly and M. Adler (zlib.net)
  GMP 6.1.2            GNU Multiple Precision Arithmetic Library developed by T. Granlund (gmplib.org)

user parameter file <scip.set> not found - using default parameters

read problem <../../Split_data/output/biodeg/2/3_sample_biodeg.logreg>
============

File name	:	../../Split_data/output/biodeg/2/3_sample_biodeg.logreg
Problem name 	:	3_sample_biodeg
Number of data	:	844
Number of var	:	41
The given data has linear independence

[dim=1] time: 0.03128
[dim=2] time: 0.06913
[dim=3] time: 0.10461
[dim=4] time: 0.135738
[dim=5] time: 0.166821
[dim=6] time: 0.201972
[dim=7] time: 0.228117
[dim=8] time: 0.259029
[dim=9] time: 0.293409
[dim=10] time: 0.319716
[dim=11] time: 0.346579
[dim=12] time: 0.372304
[dim=13] time: 0.396374
[dim=14] time: 0.421945
[dim=15] time: 0.447154
[dim=16] time: 0.469964
[dim=17] time: 0.493019
[dim=18] time: 0.519391
[dim=19] time: 0.541975
[dim=20] time: 0.564129
[dim=21] Time of forward = 0.584192sec.
AIC: 532.375
k: 20

[dim=41] time: 0.163544
[dim=40] time: 0.219983
[dim=39] time: 0.263543
[dim=38] time: 0.314305
[dim=37] time: 0.35905
[dim=36] time: 0.410971
[dim=35] time: 0.46197
[dim=34] time: 0.508151
[dim=33] time: 0.550158
[dim=32] time: 0.596208
[dim=31] time: 0.638401
[dim=30] time: 0.676244
[dim=29] time: 0.707881
[dim=28] time: 0.742845
[dim=27] time: 0.772908
[dim=26] time: 0.801569
[dim=25] time: 0.827932
[dim=24] time: 0.852507
[dim=23] time: 0.877293
[dim=22] Time of backward = 0.900117sec.
AIC: 530.354
k: 23
